; benchmark generated from python API
(set-info :status unknown)
(declare-fun cell_1_4 () Int)
(declare-fun cell_1_7 () Int)
(declare-fun cell_1_8 () Int)
(declare-fun cell_2_1 () Int)
(declare-fun cell_2_4 () Int)
(declare-fun cell_3_2 () Int)
(declare-fun cell_3_4 () Int)
(declare-fun cell_4_6 () Int)
(declare-fun cell_4_8 () Int)
(declare-fun cell_5_2 () Int)
(declare-fun cell_5_3 () Int)
(declare-fun cell_6_6 () Int)
(declare-fun cell_6_9 () Int)
(declare-fun cell_7_5 () Int)
(declare-fun cell_7_7 () Int)
(declare-fun cell_8_3 () Int)
(declare-fun cell_8_9 () Int)
(declare-fun cell_9_1 () Int)
(declare-fun cell_9_5 () Int)
(declare-fun cell_1_1 () Int)
(declare-fun cell_3_1 () Int)
(declare-fun cell_4_1 () Int)
(declare-fun cell_5_1 () Int)
(declare-fun cell_6_1 () Int)
(declare-fun cell_7_1 () Int)
(declare-fun cell_8_1 () Int)
(declare-fun cell_1_2 () Int)
(declare-fun cell_2_2 () Int)
(declare-fun cell_4_2 () Int)
(declare-fun cell_6_2 () Int)
(declare-fun cell_7_2 () Int)
(declare-fun cell_8_2 () Int)
(declare-fun cell_9_2 () Int)
(declare-fun cell_1_3 () Int)
(declare-fun cell_2_3 () Int)
(declare-fun cell_3_3 () Int)
(declare-fun cell_4_3 () Int)
(declare-fun cell_6_3 () Int)
(declare-fun cell_7_3 () Int)
(declare-fun cell_9_3 () Int)
(declare-fun cell_4_4 () Int)
(declare-fun cell_5_4 () Int)
(declare-fun cell_6_4 () Int)
(declare-fun cell_7_4 () Int)
(declare-fun cell_8_4 () Int)
(declare-fun cell_9_4 () Int)
(declare-fun cell_1_5 () Int)
(declare-fun cell_2_5 () Int)
(declare-fun cell_3_5 () Int)
(declare-fun cell_4_5 () Int)
(declare-fun cell_5_5 () Int)
(declare-fun cell_6_5 () Int)
(declare-fun cell_8_5 () Int)
(declare-fun cell_1_6 () Int)
(declare-fun cell_2_6 () Int)
(declare-fun cell_3_6 () Int)
(declare-fun cell_5_6 () Int)
(declare-fun cell_7_6 () Int)
(declare-fun cell_8_6 () Int)
(declare-fun cell_9_6 () Int)
(declare-fun cell_2_7 () Int)
(declare-fun cell_3_7 () Int)
(declare-fun cell_4_7 () Int)
(declare-fun cell_5_7 () Int)
(declare-fun cell_6_7 () Int)
(declare-fun cell_8_7 () Int)
(declare-fun cell_9_7 () Int)
(declare-fun cell_2_8 () Int)
(declare-fun cell_3_8 () Int)
(declare-fun cell_5_8 () Int)
(declare-fun cell_6_8 () Int)
(declare-fun cell_7_8 () Int)
(declare-fun cell_8_8 () Int)
(declare-fun cell_9_8 () Int)
(declare-fun cell_1_9 () Int)
(declare-fun cell_2_9 () Int)
(declare-fun cell_3_9 () Int)
(declare-fun cell_4_9 () Int)
(declare-fun cell_5_9 () Int)
(declare-fun cell_7_9 () Int)
(declare-fun cell_9_9 () Int)
(assert
 (= cell_1_4 3))
(assert
 (= cell_1_7 1))
(assert
 (= cell_1_8 2))
(assert
 (= cell_2_1 2))
(assert
 (= cell_2_4 1))
(assert
 (= cell_3_2 1))
(assert
 (= cell_3_4 2))
(assert
 (= cell_4_6 2))
(assert
 (= cell_4_8 1))
(assert
 (= cell_5_2 2))
(assert
 (= cell_5_3 1))
(assert
 (= cell_6_6 1))
(assert
 (= cell_6_9 2))
(assert
 (= cell_7_5 1))
(assert
 (= cell_7_7 2))
(assert
 (= cell_8_3 2))
(assert
 (= cell_8_9 1))
(assert
 (= cell_9_1 1))
(assert
 (= cell_9_5 2))
(assert
 (let (($x1538 (= cell_1_1 9)))
 (let (($x3657 (= cell_1_1 8)))
 (let (($x7092 (= cell_1_1 7)))
 (let (($x5130 (= cell_1_1 6)))
 (let (($x135 (= cell_1_1 5)))
 (let (($x5923 (= cell_1_1 4)))
 (let (($x8766 (= cell_1_1 3)))
 (let (($x7075 (= cell_1_1 2)))
 (let (($x709 (= cell_1_1 1)))
 (or $x709 $x7075 $x8766 $x5923 $x135 $x5130 $x7092 $x3657 $x1538)))))))))))
(assert
 (let (($x878 (= cell_2_1 2)))
 (or (= cell_2_1 1) $x878 (= cell_2_1 3) (= cell_2_1 4) (= cell_2_1 5) (= cell_2_1 6) (= cell_2_1 7) (= cell_2_1 8) (= cell_2_1 9))))
(assert
 (let (($x1293 (= cell_3_1 9)))
 (let (($x3723 (= cell_3_1 8)))
 (let (($x7508 (= cell_3_1 7)))
 (let (($x6370 (= cell_3_1 6)))
 (let (($x3251 (= cell_3_1 5)))
 (let (($x9493 (= cell_3_1 4)))
 (let (($x3621 (= cell_3_1 3)))
 (let (($x9343 (= cell_3_1 2)))
 (let (($x4075 (= cell_3_1 1)))
 (or $x4075 $x9343 $x3621 $x9493 $x3251 $x6370 $x7508 $x3723 $x1293)))))))))))
(assert
 (let (($x5140 (= cell_4_1 9)))
 (let (($x6266 (= cell_4_1 8)))
 (let (($x3307 (= cell_4_1 7)))
 (let (($x470 (= cell_4_1 6)))
 (let (($x9407 (= cell_4_1 5)))
 (let (($x7905 (= cell_4_1 4)))
 (let (($x7077 (= cell_4_1 3)))
 (let (($x5351 (= cell_4_1 2)))
 (let (($x4285 (= cell_4_1 1)))
 (or $x4285 $x5351 $x7077 $x7905 $x9407 $x470 $x3307 $x6266 $x5140)))))))))))
(assert
 (let (($x8898 (= cell_5_1 9)))
 (let (($x7529 (= cell_5_1 8)))
 (let (($x5453 (= cell_5_1 7)))
 (let (($x5278 (= cell_5_1 6)))
 (let (($x9671 (= cell_5_1 5)))
 (let (($x2282 (= cell_5_1 4)))
 (let (($x6395 (= cell_5_1 3)))
 (let (($x2279 (= cell_5_1 2)))
 (let (($x3944 (= cell_5_1 1)))
 (or $x3944 $x2279 $x6395 $x2282 $x9671 $x5278 $x5453 $x7529 $x8898)))))))))))
(assert
 (let (($x3551 (= cell_6_1 9)))
 (let (($x9654 (= cell_6_1 8)))
 (let (($x1681 (= cell_6_1 7)))
 (let (($x7120 (= cell_6_1 6)))
 (let (($x8459 (= cell_6_1 5)))
 (let (($x7427 (= cell_6_1 4)))
 (let (($x3154 (= cell_6_1 3)))
 (let (($x4025 (= cell_6_1 2)))
 (let (($x4711 (= cell_6_1 1)))
 (or $x4711 $x4025 $x3154 $x7427 $x8459 $x7120 $x1681 $x9654 $x3551)))))))))))
(assert
 (let (($x10050 (= cell_7_1 9)))
 (let (($x1150 (= cell_7_1 8)))
 (let (($x790 (= cell_7_1 7)))
 (let (($x5097 (= cell_7_1 6)))
 (let (($x5342 (= cell_7_1 5)))
 (let (($x8825 (= cell_7_1 4)))
 (let (($x2585 (= cell_7_1 3)))
 (let (($x4210 (= cell_7_1 2)))
 (let (($x77 (= cell_7_1 1)))
 (or $x77 $x4210 $x2585 $x8825 $x5342 $x5097 $x790 $x1150 $x10050)))))))))))
(assert
 (let (($x5457 (= cell_8_1 9)))
 (let (($x7629 (= cell_8_1 8)))
 (let (($x7386 (= cell_8_1 7)))
 (let (($x591 (= cell_8_1 6)))
 (let (($x6336 (= cell_8_1 5)))
 (let (($x5222 (= cell_8_1 4)))
 (let (($x991 (= cell_8_1 3)))
 (let (($x8786 (= cell_8_1 2)))
 (let (($x9756 (= cell_8_1 1)))
 (or $x9756 $x8786 $x991 $x5222 $x6336 $x591 $x7386 $x7629 $x5457)))))))))))
(assert
 (let (($x8966 (= cell_9_1 1)))
 (or $x8966 (= cell_9_1 2) (= cell_9_1 3) (= cell_9_1 4) (= cell_9_1 5) (= cell_9_1 6) (= cell_9_1 7) (= cell_9_1 8) (= cell_9_1 9))))
(assert
 (let (($x5103 (= cell_1_2 9)))
 (let (($x9138 (= cell_1_2 8)))
 (let (($x5844 (= cell_1_2 7)))
 (let (($x7196 (= cell_1_2 6)))
 (let (($x6478 (= cell_1_2 5)))
 (let (($x6512 (= cell_1_2 4)))
 (let (($x1697 (= cell_1_2 3)))
 (let (($x5238 (= cell_1_2 2)))
 (let (($x6576 (= cell_1_2 1)))
 (or $x6576 $x5238 $x1697 $x6512 $x6478 $x7196 $x5844 $x9138 $x5103)))))))))))
(assert
 (let (($x4223 (= cell_2_2 9)))
 (let (($x5034 (= cell_2_2 8)))
 (let (($x3933 (= cell_2_2 7)))
 (let (($x1861 (= cell_2_2 6)))
 (let (($x2338 (= cell_2_2 5)))
 (let (($x4220 (= cell_2_2 4)))
 (let (($x8703 (= cell_2_2 3)))
 (let (($x9697 (= cell_2_2 2)))
 (let (($x6031 (= cell_2_2 1)))
 (or $x6031 $x9697 $x8703 $x4220 $x2338 $x1861 $x3933 $x5034 $x4223)))))))))))
(assert
 (let (($x2411 (= cell_3_2 1)))
 (or $x2411 (= cell_3_2 2) (= cell_3_2 3) (= cell_3_2 4) (= cell_3_2 5) (= cell_3_2 6) (= cell_3_2 7) (= cell_3_2 8) (= cell_3_2 9))))
(assert
 (let (($x3941 (= cell_4_2 9)))
 (let (($x7837 (= cell_4_2 8)))
 (let (($x246 (= cell_4_2 7)))
 (let (($x8239 (= cell_4_2 6)))
 (let (($x8626 (= cell_4_2 5)))
 (let (($x6528 (= cell_4_2 4)))
 (let (($x2677 (= cell_4_2 3)))
 (let (($x1827 (= cell_4_2 2)))
 (let (($x8569 (= cell_4_2 1)))
 (or $x8569 $x1827 $x2677 $x6528 $x8626 $x8239 $x246 $x7837 $x3941)))))))))))
(assert
 (let (($x7338 (= cell_5_2 2)))
 (or (= cell_5_2 1) $x7338 (= cell_5_2 3) (= cell_5_2 4) (= cell_5_2 5) (= cell_5_2 6) (= cell_5_2 7) (= cell_5_2 8) (= cell_5_2 9))))
(assert
 (let (($x5101 (= cell_6_2 9)))
 (let (($x4254 (= cell_6_2 8)))
 (let (($x2883 (= cell_6_2 7)))
 (let (($x4031 (= cell_6_2 6)))
 (let (($x3205 (= cell_6_2 5)))
 (let (($x263 (= cell_6_2 4)))
 (let (($x7214 (= cell_6_2 3)))
 (let (($x6198 (= cell_6_2 2)))
 (let (($x1144 (= cell_6_2 1)))
 (or $x1144 $x6198 $x7214 $x263 $x3205 $x4031 $x2883 $x4254 $x5101)))))))))))
(assert
 (let (($x9805 (= cell_7_2 9)))
 (let (($x1158 (= cell_7_2 8)))
 (let (($x5854 (= cell_7_2 7)))
 (let (($x10067 (= cell_7_2 6)))
 (let (($x6250 (= cell_7_2 5)))
 (let (($x1865 (= cell_7_2 4)))
 (let (($x7523 (= cell_7_2 3)))
 (let (($x6928 (= cell_7_2 2)))
 (let (($x8794 (= cell_7_2 1)))
 (or $x8794 $x6928 $x7523 $x1865 $x6250 $x10067 $x5854 $x1158 $x9805)))))))))))
(assert
 (let (($x4500 (= cell_8_2 9)))
 (let (($x7993 (= cell_8_2 8)))
 (let (($x8195 (= cell_8_2 7)))
 (let (($x6513 (= cell_8_2 6)))
 (let (($x1276 (= cell_8_2 5)))
 (let (($x2062 (= cell_8_2 4)))
 (let (($x7700 (= cell_8_2 3)))
 (let (($x9958 (= cell_8_2 2)))
 (let (($x1627 (= cell_8_2 1)))
 (or $x1627 $x9958 $x7700 $x2062 $x1276 $x6513 $x8195 $x7993 $x4500)))))))))))
(assert
 (let (($x3738 (= cell_9_2 9)))
 (let (($x2785 (= cell_9_2 8)))
 (let (($x9389 (= cell_9_2 7)))
 (let (($x1519 (= cell_9_2 6)))
 (let (($x3039 (= cell_9_2 5)))
 (let (($x1616 (= cell_9_2 4)))
 (let (($x3239 (= cell_9_2 3)))
 (let (($x3937 (= cell_9_2 2)))
 (let (($x5382 (= cell_9_2 1)))
 (or $x5382 $x3937 $x3239 $x1616 $x3039 $x1519 $x9389 $x2785 $x3738)))))))))))
(assert
 (let (($x5433 (= cell_1_3 9)))
 (let (($x1530 (= cell_1_3 8)))
 (let (($x6634 (= cell_1_3 7)))
 (let (($x2509 (= cell_1_3 6)))
 (let (($x6038 (= cell_1_3 5)))
 (let (($x2487 (= cell_1_3 4)))
 (let (($x6247 (= cell_1_3 3)))
 (let (($x9994 (= cell_1_3 2)))
 (let (($x9872 (= cell_1_3 1)))
 (or $x9872 $x9994 $x6247 $x2487 $x6038 $x2509 $x6634 $x1530 $x5433)))))))))))
(assert
 (let (($x5145 (= cell_2_3 9)))
 (let (($x3557 (= cell_2_3 8)))
 (let (($x9776 (= cell_2_3 7)))
 (let (($x6208 (= cell_2_3 6)))
 (let (($x4965 (= cell_2_3 5)))
 (let (($x8807 (= cell_2_3 4)))
 (let (($x7405 (= cell_2_3 3)))
 (let (($x9462 (= cell_2_3 2)))
 (let (($x4754 (= cell_2_3 1)))
 (or $x4754 $x9462 $x7405 $x8807 $x4965 $x6208 $x9776 $x3557 $x5145)))))))))))
(assert
 (let (($x9062 (= cell_3_3 9)))
 (let (($x9819 (= cell_3_3 8)))
 (let (($x5702 (= cell_3_3 7)))
 (let (($x10009 (= cell_3_3 6)))
 (let (($x2170 (= cell_3_3 5)))
 (let (($x8467 (= cell_3_3 4)))
 (let (($x9268 (= cell_3_3 3)))
 (let (($x1348 (= cell_3_3 2)))
 (let (($x5180 (= cell_3_3 1)))
 (or $x5180 $x1348 $x9268 $x8467 $x2170 $x10009 $x5702 $x9819 $x9062)))))))))))
(assert
 (let (($x3866 (= cell_4_3 9)))
 (let (($x8587 (= cell_4_3 8)))
 (let (($x7445 (= cell_4_3 7)))
 (let (($x4386 (= cell_4_3 6)))
 (let (($x4524 (= cell_4_3 5)))
 (let (($x6803 (= cell_4_3 4)))
 (let (($x1157 (= cell_4_3 3)))
 (let (($x6910 (= cell_4_3 2)))
 (let (($x4404 (= cell_4_3 1)))
 (or $x4404 $x6910 $x1157 $x6803 $x4524 $x4386 $x7445 $x8587 $x3866)))))))))))
(assert
 (let (($x5617 (= cell_5_3 1)))
 (or $x5617 (= cell_5_3 2) (= cell_5_3 3) (= cell_5_3 4) (= cell_5_3 5) (= cell_5_3 6) (= cell_5_3 7) (= cell_5_3 8) (= cell_5_3 9))))
(assert
 (let (($x7896 (= cell_6_3 9)))
 (let (($x3567 (= cell_6_3 8)))
 (let (($x5553 (= cell_6_3 7)))
 (let (($x7570 (= cell_6_3 6)))
 (let (($x81 (= cell_6_3 5)))
 (let (($x2280 (= cell_6_3 4)))
 (let (($x1702 (= cell_6_3 3)))
 (let (($x1297 (= cell_6_3 2)))
 (let (($x10149 (= cell_6_3 1)))
 (or $x10149 $x1297 $x1702 $x2280 $x81 $x7570 $x5553 $x3567 $x7896)))))))))))
(assert
 (let (($x7220 (= cell_7_3 9)))
 (let (($x3976 (= cell_7_3 8)))
 (let (($x5232 (= cell_7_3 7)))
 (let (($x984 (= cell_7_3 6)))
 (let (($x7599 (= cell_7_3 5)))
 (let (($x2303 (= cell_7_3 4)))
 (let (($x6441 (= cell_7_3 3)))
 (let (($x5976 (= cell_7_3 2)))
 (let (($x8307 (= cell_7_3 1)))
 (or $x8307 $x5976 $x6441 $x2303 $x7599 $x984 $x5232 $x3976 $x7220)))))))))))
(assert
 (let (($x3122 (= cell_8_3 2)))
 (or (= cell_8_3 1) $x3122 (= cell_8_3 3) (= cell_8_3 4) (= cell_8_3 5) (= cell_8_3 6) (= cell_8_3 7) (= cell_8_3 8) (= cell_8_3 9))))
(assert
 (let (($x4881 (= cell_9_3 9)))
 (let (($x5510 (= cell_9_3 8)))
 (let (($x7381 (= cell_9_3 7)))
 (let (($x8169 (= cell_9_3 6)))
 (let (($x5827 (= cell_9_3 5)))
 (let (($x6906 (= cell_9_3 4)))
 (let (($x3042 (= cell_9_3 3)))
 (let (($x5683 (= cell_9_3 2)))
 (let (($x3800 (= cell_9_3 1)))
 (or $x3800 $x5683 $x3042 $x6906 $x5827 $x8169 $x7381 $x5510 $x4881)))))))))))
(assert
 (let (($x6986 (= cell_1_4 3)))
 (or (= cell_1_4 1) (= cell_1_4 2) $x6986 (= cell_1_4 4) (= cell_1_4 5) (= cell_1_4 6) (= cell_1_4 7) (= cell_1_4 8) (= cell_1_4 9))))
(assert
 (let (($x3129 (= cell_2_4 1)))
 (or $x3129 (= cell_2_4 2) (= cell_2_4 3) (= cell_2_4 4) (= cell_2_4 5) (= cell_2_4 6) (= cell_2_4 7) (= cell_2_4 8) (= cell_2_4 9))))
(assert
 (let (($x1170 (= cell_3_4 2)))
 (or (= cell_3_4 1) $x1170 (= cell_3_4 3) (= cell_3_4 4) (= cell_3_4 5) (= cell_3_4 6) (= cell_3_4 7) (= cell_3_4 8) (= cell_3_4 9))))
(assert
 (let (($x3745 (= cell_4_4 9)))
 (let (($x3049 (= cell_4_4 8)))
 (let (($x8054 (= cell_4_4 7)))
 (let (($x5108 (= cell_4_4 6)))
 (let (($x8792 (= cell_4_4 5)))
 (let (($x6205 (= cell_4_4 4)))
 (let (($x8723 (= cell_4_4 3)))
 (let (($x2188 (= cell_4_4 2)))
 (let (($x5765 (= cell_4_4 1)))
 (or $x5765 $x2188 $x8723 $x6205 $x8792 $x5108 $x8054 $x3049 $x3745)))))))))))
(assert
 (let (($x3790 (= cell_5_4 9)))
 (let (($x3258 (= cell_5_4 8)))
 (let (($x6653 (= cell_5_4 7)))
 (let (($x3706 (= cell_5_4 6)))
 (let (($x6535 (= cell_5_4 5)))
 (let (($x8551 (= cell_5_4 4)))
 (let (($x1416 (= cell_5_4 3)))
 (let (($x1286 (= cell_5_4 2)))
 (let (($x8227 (= cell_5_4 1)))
 (or $x8227 $x1286 $x1416 $x8551 $x6535 $x3706 $x6653 $x3258 $x3790)))))))))))
(assert
 (let (($x4176 (= cell_6_4 9)))
 (let (($x3325 (= cell_6_4 8)))
 (let (($x10218 (= cell_6_4 7)))
 (let (($x7315 (= cell_6_4 6)))
 (let (($x4459 (= cell_6_4 5)))
 (let (($x8568 (= cell_6_4 4)))
 (let (($x1580 (= cell_6_4 3)))
 (let (($x6318 (= cell_6_4 2)))
 (let (($x6167 (= cell_6_4 1)))
 (or $x6167 $x6318 $x1580 $x8568 $x4459 $x7315 $x10218 $x3325 $x4176)))))))))))
(assert
 (let (($x5485 (= cell_7_4 9)))
 (let (($x5538 (= cell_7_4 8)))
 (let (($x4413 (= cell_7_4 7)))
 (let (($x6998 (= cell_7_4 6)))
 (let (($x6625 (= cell_7_4 5)))
 (let (($x872 (= cell_7_4 4)))
 (let (($x4594 (= cell_7_4 3)))
 (let (($x1796 (= cell_7_4 2)))
 (let (($x117 (= cell_7_4 1)))
 (or $x117 $x1796 $x4594 $x872 $x6625 $x6998 $x4413 $x5538 $x5485)))))))))))
(assert
 (let (($x9187 (= cell_8_4 9)))
 (let (($x6683 (= cell_8_4 8)))
 (let (($x739 (= cell_8_4 7)))
 (let (($x1651 (= cell_8_4 6)))
 (let (($x4863 (= cell_8_4 5)))
 (let (($x3639 (= cell_8_4 4)))
 (let (($x5922 (= cell_8_4 3)))
 (let (($x9786 (= cell_8_4 2)))
 (let (($x2084 (= cell_8_4 1)))
 (or $x2084 $x9786 $x5922 $x3639 $x4863 $x1651 $x739 $x6683 $x9187)))))))))))
(assert
 (let (($x7430 (= cell_9_4 9)))
 (let (($x8838 (= cell_9_4 8)))
 (let (($x6878 (= cell_9_4 7)))
 (let (($x5024 (= cell_9_4 6)))
 (let (($x1112 (= cell_9_4 5)))
 (let (($x6140 (= cell_9_4 4)))
 (let (($x4991 (= cell_9_4 3)))
 (let (($x1335 (= cell_9_4 2)))
 (let (($x9155 (= cell_9_4 1)))
 (or $x9155 $x1335 $x4991 $x6140 $x1112 $x5024 $x6878 $x8838 $x7430)))))))))))
(assert
 (let (($x3576 (= cell_1_5 9)))
 (let (($x7210 (= cell_1_5 8)))
 (let (($x4541 (= cell_1_5 7)))
 (let (($x4866 (= cell_1_5 6)))
 (let (($x7234 (= cell_1_5 5)))
 (let (($x9474 (= cell_1_5 4)))
 (let (($x6882 (= cell_1_5 3)))
 (let (($x7494 (= cell_1_5 2)))
 (let (($x9311 (= cell_1_5 1)))
 (or $x9311 $x7494 $x6882 $x9474 $x7234 $x4866 $x4541 $x7210 $x3576)))))))))))
(assert
 (let (($x7194 (= cell_2_5 9)))
 (let (($x4955 (= cell_2_5 8)))
 (let (($x9206 (= cell_2_5 7)))
 (let (($x6116 (= cell_2_5 6)))
 (let (($x485 (= cell_2_5 5)))
 (let (($x4964 (= cell_2_5 4)))
 (let (($x1018 (= cell_2_5 3)))
 (let (($x9987 (= cell_2_5 2)))
 (let (($x1671 (= cell_2_5 1)))
 (or $x1671 $x9987 $x1018 $x4964 $x485 $x6116 $x9206 $x4955 $x7194)))))))))))
(assert
 (let (($x6668 (= cell_3_5 9)))
 (let (($x3897 (= cell_3_5 8)))
 (let (($x844 (= cell_3_5 7)))
 (let (($x9561 (= cell_3_5 6)))
 (let (($x3789 (= cell_3_5 5)))
 (let (($x3970 (= cell_3_5 4)))
 (let (($x7129 (= cell_3_5 3)))
 (let (($x5599 (= cell_3_5 2)))
 (let (($x3354 (= cell_3_5 1)))
 (or $x3354 $x5599 $x7129 $x3970 $x3789 $x9561 $x844 $x3897 $x6668)))))))))))
(assert
 (let (($x3458 (= cell_4_5 9)))
 (let (($x8496 (= cell_4_5 8)))
 (let (($x7305 (= cell_4_5 7)))
 (let (($x9664 (= cell_4_5 6)))
 (let (($x7275 (= cell_4_5 5)))
 (let (($x3429 (= cell_4_5 4)))
 (let (($x5478 (= cell_4_5 3)))
 (let (($x4242 (= cell_4_5 2)))
 (let (($x796 (= cell_4_5 1)))
 (or $x796 $x4242 $x5478 $x3429 $x7275 $x9664 $x7305 $x8496 $x3458)))))))))))
(assert
 (let (($x5585 (= cell_5_5 9)))
 (let (($x7628 (= cell_5_5 8)))
 (let (($x9083 (= cell_5_5 7)))
 (let (($x4563 (= cell_5_5 6)))
 (let (($x836 (= cell_5_5 5)))
 (let (($x3311 (= cell_5_5 4)))
 (let (($x9102 (= cell_5_5 3)))
 (let (($x4520 (= cell_5_5 2)))
 (let (($x4377 (= cell_5_5 1)))
 (or $x4377 $x4520 $x9102 $x3311 $x836 $x4563 $x9083 $x7628 $x5585)))))))))))
(assert
 (let (($x1457 (= cell_6_5 9)))
 (let (($x290 (= cell_6_5 8)))
 (let (($x3799 (= cell_6_5 7)))
 (let (($x1720 (= cell_6_5 6)))
 (let (($x10036 (= cell_6_5 5)))
 (let (($x10057 (= cell_6_5 4)))
 (let (($x1452 (= cell_6_5 3)))
 (let (($x6930 (= cell_6_5 2)))
 (let (($x9810 (= cell_6_5 1)))
 (or $x9810 $x6930 $x1452 $x10057 $x10036 $x1720 $x3799 $x290 $x1457)))))))))))
(assert
 (let (($x5099 (= cell_7_5 1)))
 (or $x5099 (= cell_7_5 2) (= cell_7_5 3) (= cell_7_5 4) (= cell_7_5 5) (= cell_7_5 6) (= cell_7_5 7) (= cell_7_5 8) (= cell_7_5 9))))
(assert
 (let (($x3916 (= cell_8_5 9)))
 (let (($x5938 (= cell_8_5 8)))
 (let (($x33 (= cell_8_5 7)))
 (let (($x4793 (= cell_8_5 6)))
 (let (($x3631 (= cell_8_5 5)))
 (let (($x480 (= cell_8_5 4)))
 (let (($x3602 (= cell_8_5 3)))
 (let (($x4985 (= cell_8_5 2)))
 (let (($x10136 (= cell_8_5 1)))
 (or $x10136 $x4985 $x3602 $x480 $x3631 $x4793 $x33 $x5938 $x3916)))))))))))
(assert
 (let (($x958 (= cell_9_5 2)))
 (or (= cell_9_5 1) $x958 (= cell_9_5 3) (= cell_9_5 4) (= cell_9_5 5) (= cell_9_5 6) (= cell_9_5 7) (= cell_9_5 8) (= cell_9_5 9))))
(assert
 (let (($x1676 (= cell_1_6 9)))
 (let (($x308 (= cell_1_6 8)))
 (let (($x5474 (= cell_1_6 7)))
 (let (($x1928 (= cell_1_6 6)))
 (let (($x5995 (= cell_1_6 5)))
 (let (($x9318 (= cell_1_6 4)))
 (let (($x4973 (= cell_1_6 3)))
 (let (($x702 (= cell_1_6 2)))
 (let (($x6122 (= cell_1_6 1)))
 (or $x6122 $x702 $x4973 $x9318 $x5995 $x1928 $x5474 $x308 $x1676)))))))))))
(assert
 (let (($x4123 (= cell_2_6 9)))
 (let (($x3653 (= cell_2_6 8)))
 (let (($x4877 (= cell_2_6 7)))
 (let (($x360 (= cell_2_6 6)))
 (let (($x2996 (= cell_2_6 5)))
 (let (($x8010 (= cell_2_6 4)))
 (let (($x8233 (= cell_2_6 3)))
 (let (($x273 (= cell_2_6 2)))
 (let (($x3408 (= cell_2_6 1)))
 (or $x3408 $x273 $x8233 $x8010 $x2996 $x360 $x4877 $x3653 $x4123)))))))))))
(assert
 (let (($x3286 (= cell_3_6 9)))
 (let (($x41 (= cell_3_6 8)))
 (let (($x9715 (= cell_3_6 7)))
 (let (($x8858 (= cell_3_6 6)))
 (let (($x5263 (= cell_3_6 5)))
 (let (($x842 (= cell_3_6 4)))
 (let (($x5745 (= cell_3_6 3)))
 (let (($x8880 (= cell_3_6 2)))
 (let (($x9886 (= cell_3_6 1)))
 (or $x9886 $x8880 $x5745 $x842 $x5263 $x8858 $x9715 $x41 $x3286)))))))))))
(assert
 (let (($x5171 (= cell_4_6 2)))
 (or (= cell_4_6 1) $x5171 (= cell_4_6 3) (= cell_4_6 4) (= cell_4_6 5) (= cell_4_6 6) (= cell_4_6 7) (= cell_4_6 8) (= cell_4_6 9))))
(assert
 (let (($x5098 (= cell_5_6 9)))
 (let (($x2650 (= cell_5_6 8)))
 (let (($x2668 (= cell_5_6 7)))
 (let (($x3877 (= cell_5_6 6)))
 (let (($x1300 (= cell_5_6 5)))
 (let (($x2588 (= cell_5_6 4)))
 (let (($x4868 (= cell_5_6 3)))
 (let (($x8809 (= cell_5_6 2)))
 (let (($x1411 (= cell_5_6 1)))
 (or $x1411 $x8809 $x4868 $x2588 $x1300 $x3877 $x2668 $x2650 $x5098)))))))))))
(assert
 (let (($x4301 (= cell_6_6 1)))
 (or $x4301 (= cell_6_6 2) (= cell_6_6 3) (= cell_6_6 4) (= cell_6_6 5) (= cell_6_6 6) (= cell_6_6 7) (= cell_6_6 8) (= cell_6_6 9))))
(assert
 (let (($x5790 (= cell_7_6 9)))
 (let (($x6436 (= cell_7_6 8)))
 (let (($x343 (= cell_7_6 7)))
 (let (($x4528 (= cell_7_6 6)))
 (let (($x1850 (= cell_7_6 5)))
 (let (($x8991 (= cell_7_6 4)))
 (let (($x5863 (= cell_7_6 3)))
 (let (($x1898 (= cell_7_6 2)))
 (let (($x7086 (= cell_7_6 1)))
 (or $x7086 $x1898 $x5863 $x8991 $x1850 $x4528 $x343 $x6436 $x5790)))))))))))
(assert
 (let (($x7002 (= cell_8_6 9)))
 (let (($x21 (= cell_8_6 8)))
 (let (($x3720 (= cell_8_6 7)))
 (let (($x6768 (= cell_8_6 6)))
 (let (($x4226 (= cell_8_6 5)))
 (let (($x7737 (= cell_8_6 4)))
 (let (($x7651 (= cell_8_6 3)))
 (let (($x1798 (= cell_8_6 2)))
 (let (($x589 (= cell_8_6 1)))
 (or $x589 $x1798 $x7651 $x7737 $x4226 $x6768 $x3720 $x21 $x7002)))))))))))
(assert
 (let (($x6581 (= cell_9_6 2)))
 (let (($x4286 (= cell_9_6 1)))
 (or $x4286 $x6581 (= cell_9_6 3) (= cell_9_6 4) (= cell_9_6 5) (= cell_9_6 6) (= cell_9_6 7) (= cell_9_6 8) (= cell_9_6 9)))))
(assert
 (let (($x2413 (= cell_1_7 1)))
 (or $x2413 (= cell_1_7 2) (= cell_1_7 3) (= cell_1_7 4) (= cell_1_7 5) (= cell_1_7 6) (= cell_1_7 7) (= cell_1_7 8) (= cell_1_7 9))))
(assert
 (let (($x4069 (= cell_2_7 9)))
 (let (($x6743 (= cell_2_7 8)))
 (let (($x3948 (= cell_2_7 7)))
 (let (($x2909 (= cell_2_7 6)))
 (let (($x5982 (= cell_2_7 5)))
 (let (($x9778 (= cell_2_7 4)))
 (let (($x6402 (= cell_2_7 3)))
 (let (($x9930 (= cell_2_7 2)))
 (let (($x4175 (= cell_2_7 1)))
 (or $x4175 $x9930 $x6402 $x9778 $x5982 $x2909 $x3948 $x6743 $x4069)))))))))))
(assert
 (let (($x1035 (= cell_3_7 9)))
 (let (($x3050 (= cell_3_7 8)))
 (let (($x738 (= cell_3_7 7)))
 (let (($x6066 (= cell_3_7 6)))
 (let (($x8684 (= cell_3_7 5)))
 (let (($x9045 (= cell_3_7 4)))
 (let (($x4681 (= cell_3_7 3)))
 (let (($x8828 (= cell_3_7 2)))
 (let (($x7680 (= cell_3_7 1)))
 (or $x7680 $x8828 $x4681 $x9045 $x8684 $x6066 $x738 $x3050 $x1035)))))))))))
(assert
 (let (($x9077 (= cell_4_7 9)))
 (let (($x1558 (= cell_4_7 8)))
 (let (($x3840 (= cell_4_7 7)))
 (let (($x6274 (= cell_4_7 6)))
 (let (($x8055 (= cell_4_7 5)))
 (let (($x3490 (= cell_4_7 4)))
 (let (($x4642 (= cell_4_7 3)))
 (let (($x9612 (= cell_4_7 2)))
 (let (($x5300 (= cell_4_7 1)))
 (or $x5300 $x9612 $x4642 $x3490 $x8055 $x6274 $x3840 $x1558 $x9077)))))))))))
(assert
 (let (($x95 (= cell_5_7 9)))
 (let (($x2989 (= cell_5_7 8)))
 (let (($x2736 (= cell_5_7 7)))
 (let (($x6372 (= cell_5_7 6)))
 (let (($x9641 (= cell_5_7 5)))
 (let (($x3718 (= cell_5_7 4)))
 (let (($x3086 (= cell_5_7 3)))
 (let (($x1437 (= cell_5_7 2)))
 (let (($x2132 (= cell_5_7 1)))
 (or $x2132 $x1437 $x3086 $x3718 $x9641 $x6372 $x2736 $x2989 $x95)))))))))))
(assert
 (let (($x8607 (= cell_6_7 9)))
 (let (($x5874 (= cell_6_7 8)))
 (let (($x10161 (= cell_6_7 7)))
 (let (($x6647 (= cell_6_7 6)))
 (let (($x5317 (= cell_6_7 5)))
 (let (($x8161 (= cell_6_7 4)))
 (let (($x2068 (= cell_6_7 3)))
 (let (($x4274 (= cell_6_7 2)))
 (let (($x214 (= cell_6_7 1)))
 (or $x214 $x4274 $x2068 $x8161 $x5317 $x6647 $x10161 $x5874 $x8607)))))))))))
(assert
 (let (($x2694 (= cell_7_7 2)))
 (or (= cell_7_7 1) $x2694 (= cell_7_7 3) (= cell_7_7 4) (= cell_7_7 5) (= cell_7_7 6) (= cell_7_7 7) (= cell_7_7 8) (= cell_7_7 9))))
(assert
 (let (($x942 (= cell_8_7 9)))
 (let (($x5255 (= cell_8_7 8)))
 (let (($x4369 (= cell_8_7 7)))
 (let (($x1495 (= cell_8_7 6)))
 (let (($x6145 (= cell_8_7 5)))
 (let (($x5507 (= cell_8_7 4)))
 (let (($x9006 (= cell_8_7 3)))
 (let (($x7144 (= cell_8_7 2)))
 (let (($x2949 (= cell_8_7 1)))
 (or $x2949 $x7144 $x9006 $x5507 $x6145 $x1495 $x4369 $x5255 $x942)))))))))))
(assert
 (let (($x9939 (= cell_9_7 2)))
 (let (($x3757 (= cell_9_7 1)))
 (or $x3757 $x9939 (= cell_9_7 3) (= cell_9_7 4) (= cell_9_7 5) (= cell_9_7 6) (= cell_9_7 7) (= cell_9_7 8) (= cell_9_7 9)))))
(assert
 (let (($x8820 (= cell_1_8 2)))
 (or (= cell_1_8 1) $x8820 (= cell_1_8 3) (= cell_1_8 4) (= cell_1_8 5) (= cell_1_8 6) (= cell_1_8 7) (= cell_1_8 8) (= cell_1_8 9))))
(assert
 (let (($x5082 (= cell_2_8 9)))
 (let (($x3309 (= cell_2_8 8)))
 (let (($x7551 (= cell_2_8 7)))
 (let (($x4149 (= cell_2_8 6)))
 (let (($x5400 (= cell_2_8 5)))
 (let (($x8739 (= cell_2_8 4)))
 (let (($x2127 (= cell_2_8 3)))
 (let (($x9875 (= cell_2_8 2)))
 (let (($x8555 (= cell_2_8 1)))
 (or $x8555 $x9875 $x2127 $x8739 $x5400 $x4149 $x7551 $x3309 $x5082)))))))))))
(assert
 (let (($x8299 (= cell_3_8 9)))
 (let (($x944 (= cell_3_8 8)))
 (let (($x8659 (= cell_3_8 7)))
 (let (($x6961 (= cell_3_8 6)))
 (let (($x1028 (= cell_3_8 5)))
 (let (($x2026 (= cell_3_8 4)))
 (let (($x9175 (= cell_3_8 3)))
 (let (($x5664 (= cell_3_8 2)))
 (let (($x2750 (= cell_3_8 1)))
 (or $x2750 $x5664 $x9175 $x2026 $x1028 $x6961 $x8659 $x944 $x8299)))))))))))
(assert
 (let (($x4758 (= cell_4_8 1)))
 (or $x4758 (= cell_4_8 2) (= cell_4_8 3) (= cell_4_8 4) (= cell_4_8 5) (= cell_4_8 6) (= cell_4_8 7) (= cell_4_8 8) (= cell_4_8 9))))
(assert
 (let (($x3428 (= cell_5_8 9)))
 (let (($x1346 (= cell_5_8 8)))
 (let (($x3967 (= cell_5_8 7)))
 (let (($x6358 (= cell_5_8 6)))
 (let (($x2660 (= cell_5_8 5)))
 (let (($x966 (= cell_5_8 4)))
 (let (($x4182 (= cell_5_8 3)))
 (let (($x6449 (= cell_5_8 2)))
 (let (($x264 (= cell_5_8 1)))
 (or $x264 $x6449 $x4182 $x966 $x2660 $x6358 $x3967 $x1346 $x3428)))))))))))
(assert
 (let (($x1079 (= cell_6_8 9)))
 (let (($x3168 (= cell_6_8 8)))
 (let (($x350 (= cell_6_8 7)))
 (let (($x8808 (= cell_6_8 6)))
 (let (($x2796 (= cell_6_8 5)))
 (let (($x6278 (= cell_6_8 4)))
 (let (($x3280 (= cell_6_8 3)))
 (let (($x1375 (= cell_6_8 2)))
 (let (($x4896 (= cell_6_8 1)))
 (or $x4896 $x1375 $x3280 $x6278 $x2796 $x8808 $x350 $x3168 $x1079)))))))))))
(assert
 (let (($x5401 (= cell_7_8 9)))
 (let (($x1809 (= cell_7_8 8)))
 (let (($x3901 (= cell_7_8 7)))
 (let (($x4913 (= cell_7_8 6)))
 (let (($x8130 (= cell_7_8 5)))
 (let (($x3266 (= cell_7_8 4)))
 (let (($x4928 (= cell_7_8 3)))
 (let (($x1464 (= cell_7_8 2)))
 (let (($x9719 (= cell_7_8 1)))
 (or $x9719 $x1464 $x4928 $x3266 $x8130 $x4913 $x3901 $x1809 $x5401)))))))))))
(assert
 (let (($x7202 (= cell_8_8 9)))
 (let (($x3390 (= cell_8_8 8)))
 (let (($x4809 (= cell_8_8 7)))
 (let (($x4816 (= cell_8_8 6)))
 (let (($x1523 (= cell_8_8 5)))
 (let (($x258 (= cell_8_8 4)))
 (let (($x7927 (= cell_8_8 3)))
 (let (($x5357 (= cell_8_8 2)))
 (let (($x2967 (= cell_8_8 1)))
 (or $x2967 $x5357 $x7927 $x258 $x1523 $x4816 $x4809 $x3390 $x7202)))))))))))
(assert
 (let (($x8051 (= cell_9_8 2)))
 (let (($x7659 (= cell_9_8 1)))
 (or $x7659 $x8051 (= cell_9_8 3) (= cell_9_8 4) (= cell_9_8 5) (= cell_9_8 6) (= cell_9_8 7) (= cell_9_8 8) (= cell_9_8 9)))))
(assert
 (let (($x1168 (= cell_1_9 9)))
 (let (($x5362 (= cell_1_9 8)))
 (let (($x950 (= cell_1_9 7)))
 (let (($x8772 (= cell_1_9 6)))
 (let (($x6796 (= cell_1_9 5)))
 (let (($x10080 (= cell_1_9 4)))
 (let (($x5402 (= cell_1_9 3)))
 (let (($x2495 (= cell_1_9 2)))
 (let (($x3469 (= cell_1_9 1)))
 (or $x3469 $x2495 $x5402 $x10080 $x6796 $x8772 $x950 $x5362 $x1168)))))))))))
(assert
 (let (($x3633 (= cell_2_9 9)))
 (let (($x6645 (= cell_2_9 8)))
 (let (($x4585 (= cell_2_9 7)))
 (let (($x6126 (= cell_2_9 6)))
 (let (($x8317 (= cell_2_9 5)))
 (let (($x7716 (= cell_2_9 4)))
 (let (($x9623 (= cell_2_9 3)))
 (let (($x6404 (= cell_2_9 2)))
 (let (($x8324 (= cell_2_9 1)))
 (or $x8324 $x6404 $x9623 $x7716 $x8317 $x6126 $x4585 $x6645 $x3633)))))))))))
(assert
 (let (($x534 (= cell_3_9 9)))
 (let (($x4750 (= cell_3_9 8)))
 (let (($x1876 (= cell_3_9 7)))
 (let (($x6124 (= cell_3_9 6)))
 (let (($x3652 (= cell_3_9 5)))
 (let (($x7883 (= cell_3_9 4)))
 (let (($x10263 (= cell_3_9 3)))
 (let (($x3436 (= cell_3_9 2)))
 (let (($x4606 (= cell_3_9 1)))
 (or $x4606 $x3436 $x10263 $x7883 $x3652 $x6124 $x1876 $x4750 $x534)))))))))))
(assert
 (let (($x7446 (= cell_4_9 9)))
 (let (($x335 (= cell_4_9 8)))
 (let (($x2194 (= cell_4_9 7)))
 (let (($x183 (= cell_4_9 6)))
 (let (($x373 (= cell_4_9 5)))
 (let (($x4084 (= cell_4_9 4)))
 (let (($x5512 (= cell_4_9 3)))
 (let (($x5803 (= cell_4_9 2)))
 (let (($x2707 (= cell_4_9 1)))
 (or $x2707 $x5803 $x5512 $x4084 $x373 $x183 $x2194 $x335 $x7446)))))))))))
(assert
 (let (($x7623 (= cell_5_9 9)))
 (let (($x4918 (= cell_5_9 8)))
 (let (($x2527 (= cell_5_9 7)))
 (let (($x1880 (= cell_5_9 6)))
 (let (($x7753 (= cell_5_9 5)))
 (let (($x7635 (= cell_5_9 4)))
 (let (($x6195 (= cell_5_9 3)))
 (let (($x9284 (= cell_5_9 2)))
 (let (($x9495 (= cell_5_9 1)))
 (or $x9495 $x9284 $x6195 $x7635 $x7753 $x1880 $x2527 $x4918 $x7623)))))))))))
(assert
 (let (($x4632 (= cell_6_9 2)))
 (or (= cell_6_9 1) $x4632 (= cell_6_9 3) (= cell_6_9 4) (= cell_6_9 5) (= cell_6_9 6) (= cell_6_9 7) (= cell_6_9 8) (= cell_6_9 9))))
(assert
 (let (($x4411 (= cell_7_9 9)))
 (let (($x5672 (= cell_7_9 8)))
 (let (($x4634 (= cell_7_9 7)))
 (let (($x9858 (= cell_7_9 6)))
 (let (($x3133 (= cell_7_9 5)))
 (let (($x8381 (= cell_7_9 4)))
 (let (($x80 (= cell_7_9 3)))
 (let (($x10206 (= cell_7_9 2)))
 (let (($x1634 (= cell_7_9 1)))
 (or $x1634 $x10206 $x80 $x8381 $x3133 $x9858 $x4634 $x5672 $x4411)))))))))))
(assert
 (let (($x8654 (= cell_8_9 1)))
 (or $x8654 (= cell_8_9 2) (= cell_8_9 3) (= cell_8_9 4) (= cell_8_9 5) (= cell_8_9 6) (= cell_8_9 7) (= cell_8_9 8) (= cell_8_9 9))))
(assert
 (let (($x8799 (= cell_9_9 2)))
 (let (($x10099 (= cell_9_9 1)))
 (or $x10099 $x8799 (= cell_9_9 3) (= cell_9_9 4) (= cell_9_9 5) (= cell_9_9 6) (= cell_9_9 7) (= cell_9_9 8) (= cell_9_9 9)))))
(assert
 (and (distinct cell_1_1 cell_1_2 cell_1_3 cell_1_4 cell_1_5 cell_1_6 cell_1_7 cell_1_8 cell_1_9) true))
(assert
 (and (distinct cell_2_1 cell_2_2 cell_2_3 cell_2_4 cell_2_5 cell_2_6 cell_2_7 cell_2_8 cell_2_9) true))
(assert
 (and (distinct cell_3_1 cell_3_2 cell_3_3 cell_3_4 cell_3_5 cell_3_6 cell_3_7 cell_3_8 cell_3_9) true))
(assert
 (and (distinct cell_4_1 cell_4_2 cell_4_3 cell_4_4 cell_4_5 cell_4_6 cell_4_7 cell_4_8 cell_4_9) true))
(assert
 (and (distinct cell_5_1 cell_5_2 cell_5_3 cell_5_4 cell_5_5 cell_5_6 cell_5_7 cell_5_8 cell_5_9) true))
(assert
 (and (distinct cell_6_1 cell_6_2 cell_6_3 cell_6_4 cell_6_5 cell_6_6 cell_6_7 cell_6_8 cell_6_9) true))
(assert
 (and (distinct cell_7_1 cell_7_2 cell_7_3 cell_7_4 cell_7_5 cell_7_6 cell_7_7 cell_7_8 cell_7_9) true))
(assert
 (and (distinct cell_8_1 cell_8_2 cell_8_3 cell_8_4 cell_8_5 cell_8_6 cell_8_7 cell_8_8 cell_8_9) true))
(assert
 (and (distinct cell_9_1 cell_9_2 cell_9_3 cell_9_4 cell_9_5 cell_9_6 cell_9_7 cell_9_8 cell_9_9) true))
(assert
 (and (distinct cell_1_1 cell_2_1 cell_3_1 cell_4_1 cell_5_1 cell_6_1 cell_7_1 cell_8_1 cell_9_1) true))
(assert
 (and (distinct cell_1_2 cell_2_2 cell_3_2 cell_4_2 cell_5_2 cell_6_2 cell_7_2 cell_8_2 cell_9_2) true))
(assert
 (and (distinct cell_1_3 cell_2_3 cell_3_3 cell_4_3 cell_5_3 cell_6_3 cell_7_3 cell_8_3 cell_9_3) true))
(assert
 (and (distinct cell_1_4 cell_2_4 cell_3_4 cell_4_4 cell_5_4 cell_6_4 cell_7_4 cell_8_4 cell_9_4) true))
(assert
 (and (distinct cell_1_5 cell_2_5 cell_3_5 cell_4_5 cell_5_5 cell_6_5 cell_7_5 cell_8_5 cell_9_5) true))
(assert
 (and (distinct cell_1_6 cell_2_6 cell_3_6 cell_4_6 cell_5_6 cell_6_6 cell_7_6 cell_8_6 cell_9_6) true))
(assert
 (and (distinct cell_1_7 cell_2_7 cell_3_7 cell_4_7 cell_5_7 cell_6_7 cell_7_7 cell_8_7 cell_9_7) true))
(assert
 (and (distinct cell_1_8 cell_2_8 cell_3_8 cell_4_8 cell_5_8 cell_6_8 cell_7_8 cell_8_8 cell_9_8) true))
(assert
 (and (distinct cell_1_9 cell_2_9 cell_3_9 cell_4_9 cell_5_9 cell_6_9 cell_7_9 cell_8_9 cell_9_9) true))
(assert
 (and (distinct cell_1_1 cell_1_2 cell_1_3 cell_2_1 cell_2_2 cell_2_3 cell_3_1 cell_3_2 cell_3_3) true))
(assert
 (and (distinct cell_1_4 cell_1_5 cell_1_6 cell_2_4 cell_2_5 cell_2_6 cell_3_4 cell_3_5 cell_3_6) true))
(assert
 (and (distinct cell_1_7 cell_1_8 cell_1_9 cell_2_7 cell_2_8 cell_2_9 cell_3_7 cell_3_8 cell_3_9) true))
(assert
 (and (distinct cell_4_1 cell_4_2 cell_4_3 cell_5_1 cell_5_2 cell_5_3 cell_6_1 cell_6_2 cell_6_3) true))
(assert
 (and (distinct cell_4_4 cell_4_5 cell_4_6 cell_5_4 cell_5_5 cell_5_6 cell_6_4 cell_6_5 cell_6_6) true))
(assert
 (and (distinct cell_4_7 cell_4_8 cell_4_9 cell_5_7 cell_5_8 cell_5_9 cell_6_7 cell_6_8 cell_6_9) true))
(assert
 (and (distinct cell_7_1 cell_7_2 cell_7_3 cell_8_1 cell_8_2 cell_8_3 cell_9_1 cell_9_2 cell_9_3) true))
(assert
 (and (distinct cell_7_4 cell_7_5 cell_7_6 cell_8_4 cell_8_5 cell_8_6 cell_9_4 cell_9_5 cell_9_6) true))
(assert
 (and (distinct cell_7_7 cell_7_8 cell_7_9 cell_8_7 cell_8_8 cell_8_9 cell_9_7 cell_9_8 cell_9_9) true))
(assert
 (let (($x694 (and (distinct cell_5_9 cell_6_8 cell_7_7 cell_8_6) true)))
 (let (($x1584 (and (distinct cell_2_9 cell_3_8 cell_4_7 cell_5_6 cell_6_5 cell_7_4 cell_8_3 cell_9_2) true)))
 (let (($x10163 (and (distinct cell_1_8 cell_2_7 cell_3_6 cell_4_5 cell_5_4 cell_6_3 cell_7_2 cell_8_1) true)))
 (let (($x3785 (and (distinct cell_1_5 cell_2_4 cell_3_3 cell_4_2) true)))
 (let (($x5684 (and (distinct cell_5_1 cell_6_2 cell_7_3 cell_8_4) true)))
 (let (($x5355 (and (distinct cell_2_1 cell_3_2 cell_4_3 cell_5_4 cell_6_5 cell_7_6 cell_8_7 cell_9_8) true)))
 (let (($x3099 (and (distinct cell_1_2 cell_2_3 cell_3_4 cell_4_5 cell_5_6 cell_6_7 cell_7_8 cell_8_9) true)))
 (let (($x9542 (and (distinct cell_1_5 cell_2_6 cell_3_7 cell_4_8) true)))
 (and $x9542 $x3099 $x5355 $x5684 $x3785 $x10163 $x1584 $x694))))))))))
(assert
 (and (distinct cell_2_3 3) true))
(check-sat)
